c "239629.clq"
p edge 100 1344
e 1 17
e 1 18
e 1 19
e 1 20
e 1 21
e 1 22
e 1 23
e 1 24
e 1 25
e 1 26
e 1 27
e 1 28
e 1 32
e 1 33
e 1 34
e 1 35
e 1 38
e 1 39
e 1 41
e 1 43
e 1 45
e 1 46
e 1 47
e 1 48
e 1 50
e 1 54
e 1 60
e 1 61
e 1 64
e 1 71
e 1 73
e 1 74
e 1 76
e 1 80
e 1 90
e 1 96
e 2 17
e 2 18
e 2 19
e 2 21
e 2 22
e 2 23
e 2 31
e 2 33
e 2 38
e 2 40
e 2 45
e 2 50
e 2 56
e 2 65
e 2 74
e 2 77
e 2 86
e 2 96
e 3 17
e 3 18
e 3 19
e 3 20
e 3 21
e 3 22
e 3 23
e 3 24
e 3 26
e 3 28
e 3 34
e 3 37
e 3 38
e 3 39
e 3 40
e 3 44
e 3 45
e 3 46
e 3 49
e 3 52
e 3 57
e 3 61
e 3 62
e 3 68
e 3 69
e 3 72
e 3 78
e 3 81
e 3 84
e 3 85
e 3 93
e 3 94
e 3 99
e 4 17
e 4 18
e 4 19
e 4 20
e 4 22
e 4 23
e 4 25
e 4 28
e 4 29
e 4 31
e 4 33
e 4 35
e 4 36
e 4 38
e 4 43
e 4 44
e 4 49
e 4 50
e 4 51
e 4 57
e 4 58
e 4 59
e 4 63
e 4 68
e 4 77
e 4 78
e 4 86
e 4 92
e 5 17
e 5 18
e 5 19
e 5 20
e 5 24
e 5 31
e 5 48
e 5 56
e 5 60
e 5 69
e 6 17
e 6 18
e 6 19
e 6 20
e 6 21
e 6 22
e 6 23
e 6 24
e 6 26
e 6 27
e 6 28
e 6 29
e 6 30
e 6 34
e 6 36
e 6 38
e 6 39
e 6 52
e 6 54
e 6 55
e 6 61
e 6 66
e 6 67
e 6 70
e 6 72
e 6 73
e 6 75
e 6 80
e 6 82
e 6 87
e 6 89
e 7 17
e 7 18
e 7 19
e 7 20
e 7 21
e 7 22
e 7 23
e 7 24
e 7 25
e 7 27
e 7 29
e 7 30
e 7 31
e 7 34
e 7 35
e 7 36
e 7 37
e 7 42
e 7 43
e 7 44
e 7 48
e 7 66
e 7 81
e 8 17
e 8 18
e 8 19
e 8 20
e 8 22
e 8 23
e 8 24
e 8 25
e 8 26
e 8 31
e 8 32
e 8 34
e 8 36
e 8 37
e 8 39
e 8 49
e 8 61
e 8 95
e 8 97
e 9 17
e 9 18
e 9 19
e 9 20
e 9 21
e 9 22
e 9 23
e 9 24
e 9 25
e 9 27
e 9 28
e 9 34
e 9 37
e 9 48
e 9 51
e 9 52
e 9 53
e 9 55
e 9 56
e 9 57
e 9 68
e 9 75
e 9 76
e 9 78
e 9 91
e 9 93
e 9 96
e 10 17
e 10 18
e 10 19
e 10 20
e 10 21
e 10 22
e 10 28
e 10 30
e 10 31
e 10 32
e 10 34
e 10 35
e 10 38
e 10 47
e 10 51
e 10 52
e 10 55
e 10 56
e 10 62
e 10 64
e 10 83
e 10 84
e 10 90
e 10 94
e 11 17
e 11 18
e 11 19
e 11 21
e 11 27
e 11 29
e 11 32
e 11 37
e 11 38
e 11 47
e 11 49
e 11 59
e 11 74
e 11 80
e 12 17
e 12 20
e 12 21
e 12 25
e 12 26
e 12 27
e 12 28
e 12 42
e 12 48
e 12 52
e 12 54
e 12 68
e 12 69
e 12 86
e 13 17
e 13 18
e 13 19
e 13 21
e 13 23
e 13 24
e 13 25
e 13 27
e 13 30
e 13 32
e 13 35
e 13 40
e 13 41
e 13 54
e 13 59
e 13 63
e 13 67
e 13 75
e 13 76
e 13 78
e 13 85
e 14 17
e 14 18
e 14 20
e 14 21
e 14 22
e 14 24
e 14 25
e 14 27
e 14 28
e 14 35
e 14 39
e 14 41
e 14 53
e 14 60
e 14 61
e 14 62
e 14 64
e 14 85
e 14 96
e 15 17
e 15 18
e 15 19
e 15 20
e 15 21
e 15 22
e 15 23
e 15 26
e 15 28
e 15 29
e 15 34
e 15 50
e 15 53
e 15 58
e 15 64
e 15 66
e 15 67
e 15 76
e 15 79
e 15 83
e 15 87
e 15 93
e 15 97
e 15 99
e 16 17
e 16 18
e 16 19
e 16 20
e 16 25
e 16 26
e 16 27
e 16 28
e 16 30
e 16 31
e 16 39
e 16 42
e 16 47
e 16 49
e 16 54
e 16 60
e 16 61
e 16 63
e 16 65
e 16 72
e 16 74
e 16 75
e 16 80
e 16 81
e 16 97
e 17 18
e 17 19
e 17 20
e 17 21
e 17 22
e 17 23
e 17 24
e 17 25
e 17 26
e 17 27
e 17 28
e 17 29
e 17 30
e 17 31
e 17 33
e 17 36
e 17 37
e 17 39
e 17 40
e 17 41
e 17 44
e 17 45
e 17 47
e 17 48
e 17 49
e 17 50
e 17 51
e 17 54
e 17 55
e 17 57
e 17 58
e 17 61
e 17 62
e 17 64
e 17 66
e 17 67
e 17 70
e 17 73
e 17 74
e 17 75
e 17 76
e 17 78
e 17 79
e 17 83
e 17 84
e 17 86
e 17 90
e 17 94
e 17 97
e 17 100
e 18 19
e 18 20
e 18 21
e 18 22
e 18 23
e 18 24
e 18 25
e 18 26
e 18 27
e 18 29
e 18 30
e 18 31
e 18 33
e 18 34
e 18 35
e 18 36
e 18 37
e 18 39
e 18 41
e 18 42
e 18 44
e 18 45
e 18 46
e 18 48
e 18 50
e 18 52
e 18 53
e 18 55
e 18 56
e 18 60
e 18 61
e 18 62
e 18 65
e 18 67
e 18 70
e 18 72
e 18 73
e 18 75
e 18 76
e 18 80
e 18 82
e 18 83
e 18 86
e 18 88
e 18 97
e 19 20
e 19 21
e 19 22
e 19 23
e 19 24
e 19 25
e 19 26
e 19 29
e 19 30
e 19 31
e 19 32
e 19 33
e 19 34
e 19 35
e 19 36
e 19 37
e 19 39
e 19 40
e 19 42
e 19 43
e 19 44
e 19 45
e 19 46
e 19 49
e 19 51
e 19 53
e 19 58
e 19 59
e 19 62
e 19 64
e 19 66
e 19 67
e 19 69
e 19 72
e 19 75
e 19 76
e 19 77
e 19 81
e 19 88
e 19 91
e 19 92
e 19 100
e 20 21
e 20 22
e 20 23
e 20 24
e 20 25
e 20 26
e 20 27
e 20 29
e 20 31
e 20 32
e 20 33
e 20 34
e 20 35
e 20 36
e 20 37
e 20 38
e 20 39
e 20 40
e 20 43
e 20 44
e 20 45
e 20 47
e 20 50
e 20 52
e 20 54
e 20 55
e 20 58
e 20 60
e 20 65
e 20 69
e 20 70
e 20 71
e 20 74
e 20 76
e 20 77
e 20 79
e 20 80
e 20 82
e 20 84
e 20 87
e 20 92
e 20 93
e 20 94
e 21 22
e 21 23
e 21 24
e 21 26
e 21 27
e 21 28
e 21 29
e 21 30
e 21 31
e 21 32
e 21 33
e 21 38
e 21 40
e 21 41
e 21 43
e 21 44
e 21 45
e 21 46
e 21 47
e 21 49
e 21 53
e 21 54
e 21 55
e 21 56
e 21 58
e 21 61
e 21 63
e 21 70
e 21 72
e 21 75
e 21 76
e 21 78
e 21 81
e 21 82
e 21 83
e 21 85
e 21 86
e 21 89
e 21 94
e 21 96
e 21 99
e 22 23
e 22 24
e 22 25
e 22 26
e 22 27
e 22 28
e 22 29
e 22 30
e 22 31
e 22 32
e 22 33
e 22 35
e 22 36
e 22 37
e 22 38
e 22 40
e 22 41
e 22 42
e 22 43
e 22 44
e 22 48
e 22 51
e 22 52
e 22 53
e 22 54
e 22 55
e 22 56
e 22 57
e 22 59
e 22 62
e 22 63
e 22 66
e 22 70
e 22 78
e 22 82
e 22 85
e 22 87
e 22 88
e 22 89
e 22 91
e 22 96
e 22 97
e 23 24
e 23 25
e 23 26
e 23 27
e 23 29
e 23 31
e 23 32
e 23 33
e 23 34
e 23 35
e 23 37
e 23 40
e 23 41
e 23 44
e 23 45
e 23 47
e 23 53
e 23 55
e 23 59
e 23 60
e 23 61
e 23 64
e 23 67
e 23 69
e 23 83
e 23 86
e 23 91
e 23 93
e 24 25
e 24 26
e 24 27
e 24 28
e 24 29
e 24 30
e 24 33
e 24 34
e 24 35
e 24 39
e 24 41
e 24 42
e 24 44
e 24 47
e 24 48
e 24 49
e 24 50
e 24 51
e 24 52
e 24 53
e 24 54
e 24 55
e 24 57
e 24 59
e 24 60
e 24 64
e 24 69
e 24 70
e 24 71
e 24 74
e 24 77
e 24 82
e 24 83
e 24 84
e 24 85
e 24 86
e 24 93
e 24 95
e 24 97
e 24 98
e 24 99
e 24 100
e 25 26
e 25 29
e 25 30
e 25 31
e 25 32
e 25 39
e 25 42
e 25 46
e 25 47
e 25 48
e 25 52
e 25 59
e 25 62
e 25 67
e 25 74
e 25 82
e 25 85
e 25 86
e 25 87
e 25 98
e 26 28
e 26 29
e 26 30
e 26 31
e 26 32
e 26 34
e 26 35
e 26 36
e 26 38
e 26 40
e 26 42
e 26 43
e 26 50
e 26 53
e 26 56
e 26 57
e 26 59
e 26 60
e 26 61
e 26 66
e 26 70
e 26 71
e 26 72
e 26 73
e 26 78
e 26 79
e 26 88
e 26 90
e 26 92
e 26 100
e 27 28
e 27 29
e 27 30
e 27 32
e 27 33
e 27 36
e 27 37
e 27 39
e 27 40
e 27 41
e 27 43
e 27 47
e 27 53
e 27 55
e 27 56
e 27 60
e 27 61
e 27 63
e 27 67
e 27 69
e 27 71
e 27 72
e 27 73
e 27 75
e 27 80
e 27 85
e 27 86
e 27 94
e 27 95
e 27 98
e 27 100
e 28 30
e 28 32
e 28 33
e 28 35
e 28 36
e 28 38
e 28 41
e 28 44
e 28 45
e 28 46
e 28 47
e 28 49
e 28 50
e 28 51
e 28 53
e 28 54
e 28 56
e 28 57
e 28 58
e 28 63
e 28 64
e 28 65
e 28 66
e 28 74
e 28 75
e 28 78
e 28 80
e 28 82
e 28 85
e 28 87
e 28 89
e 28 90
e 28 92
e 28 94
e 28 95
e 28 96
e 28 97
e 28 99
e 29 30
e 29 32
e 29 33
e 29 38
e 29 40
e 29 43
e 29 46
e 29 50
e 29 52
e 29 56
e 29 59
e 29 63
e 29 68
e 29 72
e 29 76
e 29 81
e 29 83
e 29 94
e 29 99
e 29 100
e 30 32
e 30 35
e 30 36
e 30 37
e 30 38
e 30 39
e 30 41
e 30 42
e 30 43
e 30 44
e 30 45
e 30 49
e 30 51
e 30 54
e 30 58
e 30 59
e 30 67
e 30 69
e 30 70
e 30 73
e 30 75
e 30 77
e 30 78
e 30 79
e 30 80
e 30 88
e 30 93
e 30 95
e 30 97
e 31 33
e 31 34
e 31 36
e 31 40
e 31 42
e 31 43
e 31 46
e 31 53
e 31 57
e 31 60
e 31 61
e 31 63
e 31 64
e 31 65
e 31 68
e 31 71
e 31 74
e 31 77
e 31 81
e 31 84
e 31 87
e 31 91
e 31 93
e 31 94
e 32 33
e 32 40
e 32 42
e 32 46
e 32 48
e 32 52
e 32 54
e 32 77
e 32 78
e 32 79
e 32 81
e 32 83
e 32 86
e 32 92
e 32 94
e 32 98
e 33 34
e 33 36
e 33 37
e 33 39
e 33 41
e 33 42
e 33 46
e 33 48
e 33 57
e 33 58
e 33 62
e 33 63
e 33 67
e 33 70
e 33 74
e 33 78
e 33 79
e 33 82
e 33 85
e 33 88
e 33 90
e 33 91
e 33 96
e 34 35
e 34 37
e 34 38
e 34 39
e 34 42
e 34 43
e 34 45
e 34 47
e 34 49
e 34 50
e 34 51
e 34 55
e 34 60
e 34 62
e 34 67
e 34 68
e 34 69
e 34 73
e 34 81
e 34 82
e 34 88
e 34 89
e 34 91
e 34 93
e 34 96
e 34 100
e 35 36
e 35 38
e 35 41
e 35 43
e 35 44
e 35 46
e 35 49
e 35 50
e 35 53
e 35 55
e 35 56
e 35 61
e 35 63
e 35 66
e 35 70
e 35 75
e 35 85
e 35 95
e 35 98
e 36 37
e 36 41
e 36 46
e 36 55
e 36 58
e 36 59
e 36 60
e 36 66
e 36 67
e 36 68
e 36 71
e 36 88
e 36 90
e 36 94
e 36 97
e 37 42
e 37 43
e 37 48
e 37 55
e 37 64
e 37 73
e 37 76
e 37 84
e 37 87
e 37 91
e 38 40
e 38 41
e 38 42
e 38 45
e 38 46
e 38 49
e 38 51
e 38 54
e 38 61
e 38 62
e 38 65
e 38 66
e 38 78
e 38 83
e 38 86
e 38 91
e 38 92
e 38 95
e 38 98
e 39 40
e 39 44
e 39 47
e 39 50
e 39 51
e 39 62
e 39 63
e 39 65
e 39 66
e 39 68
e 39 70
e 39 72
e 39 88
e 39 94
e 39 97
e 40 45
e 40 46
e 40 48
e 40 51
e 40 65
e 40 66
e 40 68
e 40 71
e 40 72
e 40 75
e 40 83
e 41 43
e 41 44
e 41 45
e 41 48
e 41 52
e 41 56
e 41 59
e 41 60
e 41 62
e 41 70
e 41 77
e 41 80
e 41 97
e 42 46
e 42 48
e 42 49
e 42 50
e 42 56
e 42 58
e 42 59
e 42 64
e 42 72
e 42 77
e 42 79
e 42 81
e 42 90
e 42 91
e 42 95
e 43 45
e 43 47
e 43 51
e 43 52
e 43 64
e 43 70
e 43 74
e 43 79
e 43 84
e 43 92
e 43 93
e 44 49
e 44 56
e 44 57
e 44 71
e 44 81
e 44 92
e 44 93
e 44 95
e 44 100
e 45 51
e 45 52
e 45 57
e 45 59
e 45 62
e 45 64
e 45 70
e 45 76
e 45 81
e 45 99
e 46 47
e 46 58
e 46 68
e 46 71
e 46 72
e 46 77
e 46 84
e 46 88
e 46 98
e 46 100
e 47 50
e 47 53
e 47 54
e 47 58
e 47 63
e 47 65
e 47 69
e 47 75
e 47 78
e 47 90
e 47 91
e 47 92
e 48 51
e 48 52
e 48 54
e 48 58
e 48 67
e 48 71
e 48 73
e 48 80
e 48 85
e 48 86
e 48 87
e 48 88
e 48 89
e 48 90
e 48 96
e 48 97
e 49 58
e 49 63
e 49 71
e 49 73
e 49 74
e 49 81
e 49 92
e 49 100
e 50 55
e 50 57
e 50 63
e 50 65
e 50 66
e 50 68
e 50 71
e 50 72
e 50 85
e 50 87
e 50 89
e 51 57
e 51 69
e 51 75
e 51 90
e 51 99
e 52 53
e 52 56
e 52 57
e 52 60
e 52 74
e 52 76
e 52 78
e 52 80
e 52 84
e 52 94
e 52 99
e 53 65
e 53 69
e 53 79
e 53 88
e 53 92
e 53 93
e 53 95
e 54 59
e 54 60
e 54 64
e 54 80
e 54 81
e 54 91
e 54 93
e 54 96
e 54 100
e 55 57
e 55 58
e 55 67
e 55 68
e 55 69
e 55 77
e 55 79
e 55 84
e 55 87
e 55 89
e 55 93
e 55 97
e 56 71
e 56 73
e 56 86
e 56 92
e 56 100
e 57 61
e 57 62
e 57 65
e 57 69
e 57 70
e 57 73
e 57 74
e 57 81
e 57 82
e 57 87
e 57 88
e 57 91
e 58 68
e 58 72
e 58 78
e 58 82
e 58 83
e 58 84
e 58 88
e 58 98
e 59 62
e 59 64
e 59 69
e 59 79
e 59 95
e 60 65
e 60 66
e 60 68
e 60 73
e 60 74
e 60 80
e 60 86
e 61 76
e 61 77
e 61 82
e 62 63
e 62 65
e 62 79
e 62 83
e 62 84
e 63 66
e 63 73
e 63 79
e 63 91
e 63 93
e 64 65
e 64 71
e 64 77
e 64 83
e 64 95
e 64 100
e 65 67
e 65 71
e 65 79
e 65 82
e 65 83
e 65 85
e 65 89
e 66 68
e 66 77
e 66 84
e 66 90
e 66 96
e 67 72
e 67 73
e 67 82
e 67 85
e 67 89
e 68 75
e 68 98
e 69 95
e 70 81
e 71 76
e 71 77
e 71 79
e 71 82
e 71 87
e 72 76
e 72 89
e 72 99
e 72 100
e 73 90
e 73 98
e 74 80
e 74 90
e 74 100
e 75 89
e 75 90
e 76 84
e 76 87
e 76 92
e 77 80
e 77 83
e 77 84
e 77 86
e 77 87
e 77 88
e 77 91
e 77 94
e 78 99
e 79 89
e 80 85
e 80 88
e 80 90
e 80 91
e 80 95
e 80 100
e 81 89
e 81 97
e 82 89
e 82 96
e 82 97
e 82 98
e 83 92
e 83 98
e 84 87
e 84 98
e 85 98
e 85 99
e 86 89
e 86 92
e 86 95
e 86 98
e 87 95
e 87 96
e 89 93
e 89 99
e 90 94
e 91 96
e 92 94
e 92 99
e 93 96
e 94 99
e 96 98
e 98 99
